p cnf 19 15
15 13 3 0
3 18 14 0
14 8 13 0
-1 7 16 0
-4 -4 -8 0
1 2 3 4 5 6 7 8 9 10 11 12 13 14 15 16 17 18 19 0
-9 11 1 0
-5 -16 -9 0
-1 -2 -3 -4 -5 -6 -7 -8 -9 -10 -11 -12 -13 -14 -15 -16 -17 -18 -19 0
6 3 6 0
13 -15 -13 0
-7 12 -18 0
-7 11 19 0
18 -16 -11 0
-11 -13 -13 0
